c description: Graph pigeonhole principle formula on fast_gnp_random_graph(20,10,0.5)
c generator: CNFgen (0.9.0)
c copyright: (C) 2012-2020 Massimo Lauria <massimo.lauria@uniroma1.it>
c url: https://massimolauria.net/cnfgen
c
p cnf 105 540
1 2 3 0
4 5 6 7 8 9 0
10 11 12 13 14 15 0
16 17 18 19 20 0
21 22 0
23 24 25 26 27 28 0
29 30 31 32 0
33 34 35 36 37 38 39 0
40 41 42 43 44 0
45 46 47 48 49 50 0
51 52 53 54 55 56 57 58 0
59 60 61 62 63 64 65 0
66 67 68 69 70 71 0
72 73 74 75 76 0
77 78 79 80 81 82 0
83 84 85 86 87 88 89 0
90 91 92 0
93 94 95 96 97 98 0
99 100 101 102 0
103 104 105 0
-1 -4 0
-1 -16 0
-1 -23 0
-1 -40 0
-1 -51 0
-1 -59 0
-1 -66 0
-1 -72 0
-1 -93 0
-4 -16 0
-4 -23 0
-4 -40 0
-4 -51 0
-4 -59 0
-4 -66 0
-4 -72 0
-4 -93 0
-16 -23 0
-16 -40 0
-16 -51 0
-16 -59 0
-16 -66 0
-16 -72 0
-16 -93 0
-23 -40 0
-23 -51 0
-23 -59 0
-23 -66 0
-23 -72 0
-23 -93 0
-40 -51 0
-40 -59 0
-40 -66 0
-40 -72 0
-40 -93 0
-51 -59 0
-51 -66 0
-51 -72 0
-51 -93 0
-59 -66 0
-59 -72 0
-59 -93 0
-66 -72 0
-66 -93 0
-72 -93 0
-10 -24 0
-10 -29 0
-10 -33 0
-10 -45 0
-10 -52 0
-10 -60 0
-10 -77 0
-10 -83 0
-10 -94 0
-10 -99 0
-24 -29 0
-24 -33 0
-24 -45 0
-24 -52 0
-24 -60 0
-24 -77 0
-24 -83 0
-24 -94 0
-24 -99 0
-29 -33 0
-29 -45 0
-29 -52 0
-29 -60 0
-29 -77 0
-29 -83 0
-29 -94 0
-29 -99 0
-33 -45 0
-33 -52 0
-33 -60 0
-33 -77 0
-33 -83 0
-33 -94 0
-33 -99 0
-45 -52 0
-45 -60 0
-45 -77 0
-45 -83 0
-45 -94 0
-45 -99 0
-52 -60 0
-52 -77 0
-52 -83 0
-52 -94 0
-52 -99 0
-60 -77 0
-60 -83 0
-60 -94 0
-60 -99 0
-77 -83 0
-77 -94 0
-77 -99 0
-83 -94 0
-83 -99 0
-94 -99 0
-11 -21 0
-11 -25 0
-11 -30 0
-11 -53 0
-11 -67 0
-11 -78 0
-11 -84 0
-11 -90 0
-11 -95 0
-21 -25 0
-21 -30 0
-21 -53 0
-21 -67 0
-21 -78 0
-21 -84 0
-21 -90 0
-21 -95 0
-25 -30 0
-25 -53 0
-25 -67 0
-25 -78 0
-25 -84 0
-25 -90 0
-25 -95 0
-30 -53 0
-30 -67 0
-30 -78 0
-30 -84 0
-30 -90 0
-30 -95 0
-53 -67 0
-53 -78 0
-53 -84 0
-53 -90 0
-53 -95 0
-67 -78 0
-67 -84 0
-67 -90 0
-67 -95 0
-78 -84 0
-78 -90 0
-78 -95 0
-84 -90 0
-84 -95 0
-90 -95 0
-5 -12 0
-5 -26 0
-5 -41 0
-5 -46 0
-5 -54 0
-5 -61 0
-5 -68 0
-5 -73 0
-5 -85 0
-5 -103 0
-12 -26 0
-12 -41 0
-12 -46 0
-12 -54 0
-12 -61 0
-12 -68 0
-12 -73 0
-12 -85 0
-12 -103 0
-26 -41 0
-26 -46 0
-26 -54 0
-26 -61 0
-26 -68 0
-26 -73 0
-26 -85 0
-26 -103 0
-41 -46 0
-41 -54 0
-41 -61 0
-41 -68 0
-41 -73 0
-41 -85 0
-41 -103 0
-46 -54 0
-46 -61 0
-46 -68 0
-46 -73 0
-46 -85 0
-46 -103 0
-54 -61 0
-54 -68 0
-54 -73 0
-54 -85 0
-54 -103 0
-61 -68 0
-61 -73 0
-61 -85 0
-61 -103 0
-68 -73 0
-68 -85 0
-68 -103 0
-73 -85 0
-73 -103 0
-85 -103 0
-2 -13 0
-2 -34 0
-2 -47 0
-2 -55 0
-2 -62 0
-2 -69 0
-2 -79 0
-2 -86 0
-2 -100 0
-13 -34 0
-13 -47 0
-13 -55 0
-13 -62 0
-13 -69 0
-13 -79 0
-13 -86 0
-13 -100 0
-34 -47 0
-34 -55 0
-34 -62 0
-34 -69 0
-34 -79 0
-34 -86 0
-34 -100 0
-47 -55 0
-47 -62 0
-47 -69 0
-47 -79 0
-47 -86 0
-47 -100 0
-55 -62 0
-55 -69 0
-55 -79 0
-55 -86 0
-55 -100 0
-62 -69 0
-62 -79 0
-62 -86 0
-62 -100 0
-69 -79 0
-69 -86 0
-69 -100 0
-79 -86 0
-79 -100 0
-86 -100 0
-6 -14 0
-6 -35 0
-6 -48 0
-6 -56 0
-6 -63 0
-6 -80 0
-6 -87 0
-6 -91 0
-6 -96 0
-6 -101 0
-14 -35 0
-14 -48 0
-14 -56 0
-14 -63 0
-14 -80 0
-14 -87 0
-14 -91 0
-14 -96 0
-14 -101 0
-35 -48 0
-35 -56 0
-35 -63 0
-35 -80 0
-35 -87 0
-35 -91 0
-35 -96 0
-35 -101 0
-48 -56 0
-48 -63 0
-48 -80 0
-48 -87 0
-48 -91 0
-48 -96 0
-48 -101 0
-56 -63 0
-56 -80 0
-56 -87 0
-56 -91 0
-56 -96 0
-56 -101 0
-63 -80 0
-63 -87 0
-63 -91 0
-63 -96 0
-63 -101 0
-80 -87 0
-80 -91 0
-80 -96 0
-80 -101 0
-87 -91 0
-87 -96 0
-87 -101 0
-91 -96 0
-91 -101 0
-96 -101 0
-15 -17 0
-15 -27 0
-15 -31 0
-15 -36 0
-15 -42 0
-15 -49 0
-15 -57 0
-15 -70 0
-15 -74 0
-15 -81 0
-15 -88 0
-15 -92 0
-15 -97 0
-17 -27 0
-17 -31 0
-17 -36 0
-17 -42 0
-17 -49 0
-17 -57 0
-17 -70 0
-17 -74 0
-17 -81 0
-17 -88 0
-17 -92 0
-17 -97 0
-27 -31 0
-27 -36 0
-27 -42 0
-27 -49 0
-27 -57 0
-27 -70 0
-27 -74 0
-27 -81 0
-27 -88 0
-27 -92 0
-27 -97 0
-31 -36 0
-31 -42 0
-31 -49 0
-31 -57 0
-31 -70 0
-31 -74 0
-31 -81 0
-31 -88 0
-31 -92 0
-31 -97 0
-36 -42 0
-36 -49 0
-36 -57 0
-36 -70 0
-36 -74 0
-36 -81 0
-36 -88 0
-36 -92 0
-36 -97 0
-42 -49 0
-42 -57 0
-42 -70 0
-42 -74 0
-42 -81 0
-42 -88 0
-42 -92 0
-42 -97 0
-49 -57 0
-49 -70 0
-49 -74 0
-49 -81 0
-49 -88 0
-49 -92 0
-49 -97 0
-57 -70 0
-57 -74 0
-57 -81 0
-57 -88 0
-57 -92 0
-57 -97 0
-70 -74 0
-70 -81 0
-70 -88 0
-70 -92 0
-70 -97 0
-74 -81 0
-74 -88 0
-74 -92 0
-74 -97 0
-81 -88 0
-81 -92 0
-81 -97 0
-88 -92 0
-88 -97 0
-92 -97 0
-7 -18 0
-7 -37 0
-7 -43 0
-7 -71 0
-7 -104 0
-18 -37 0
-18 -43 0
-18 -71 0
-18 -104 0
-37 -43 0
-37 -71 0
-37 -104 0
-43 -71 0
-43 -104 0
-71 -104 0
-8 -19 0
-8 -38 0
-8 -44 0
-8 -64 0
-8 -75 0
-8 -82 0
-8 -98 0
-8 -102 0
-19 -38 0
-19 -44 0
-19 -64 0
-19 -75 0
-19 -82 0
-19 -98 0
-19 -102 0
-38 -44 0
-38 -64 0
-38 -75 0
-38 -82 0
-38 -98 0
-38 -102 0
-44 -64 0
-44 -75 0
-44 -82 0
-44 -98 0
-44 -102 0
-64 -75 0
-64 -82 0
-64 -98 0
-64 -102 0
-75 -82 0
-75 -98 0
-75 -102 0
-82 -98 0
-82 -102 0
-98 -102 0
-3 -9 0
-3 -20 0
-3 -22 0
-3 -28 0
-3 -32 0
-3 -39 0
-3 -50 0
-3 -58 0
-3 -65 0
-3 -76 0
-3 -89 0
-3 -105 0
-9 -20 0
-9 -22 0
-9 -28 0
-9 -32 0
-9 -39 0
-9 -50 0
-9 -58 0
-9 -65 0
-9 -76 0
-9 -89 0
-9 -105 0
-20 -22 0
-20 -28 0
-20 -32 0
-20 -39 0
-20 -50 0
-20 -58 0
-20 -65 0
-20 -76 0
-20 -89 0
-20 -105 0
-22 -28 0
-22 -32 0
-22 -39 0
-22 -50 0
-22 -58 0
-22 -65 0
-22 -76 0
-22 -89 0
-22 -105 0
-28 -32 0
-28 -39 0
-28 -50 0
-28 -58 0
-28 -65 0
-28 -76 0
-28 -89 0
-28 -105 0
-32 -39 0
-32 -50 0
-32 -58 0
-32 -65 0
-32 -76 0
-32 -89 0
-32 -105 0
-39 -50 0
-39 -58 0
-39 -65 0
-39 -76 0
-39 -89 0
-39 -105 0
-50 -58 0
-50 -65 0
-50 -76 0
-50 -89 0
-50 -105 0
-58 -65 0
-58 -76 0
-58 -89 0
-58 -105 0
-65 -76 0
-65 -89 0
-65 -105 0
-76 -89 0
-76 -105 0
-89 -105 0